p cnf 1179
-18 -368
-19 -371
-20 -374
-21 -377
-22 -380
-23 -383
-24 -386
-25 -389
-26 -392
-27 -395
-28 -398
-29 -401
-30 -404
-31 -407
-32 -410
-33 -413
-34 -416
-35 417
-36 418
-37 419
-38 420
-39 421
-40 422
-41 423
-42 424
-43 425
-44 -19
-44 -20
19 20 44
-45 -21
-45 -22
21 22 45
-46 -23
-46 -24
23 24 46
-47 -25
-47 -26
25 26 47
-48 -27
-48 -28
27 28 48
-49 -29
-49 -30
29 30 49
-50 -31
-50 -32
31 32 50
-51 -33
-51 -34
33 34 51
-52 -35
-52 -36
35 36 52
-53 -37
-53 -38
37 38 53
-54 -39
-54 -40
39 40 54
-55 -41
-55 -42
41 42 55
-56 44
-56 45
-44 -45 56
-57 46
-57 47
-46 -47 57
-58 48
-58 49
-48 -49 58
-59 50
-59 51
-50 -51 59
-60 52
-60 53
-52 -53 60
-61 54
-61 55
-54 -55 61
-62 56
-62 57
-56 -57 62
-63 58
-63 59
-58 -59 63
-64 60
-64 61
-60 -61 64
-65 62
-65 63
-62 -63 65
-66 -43
-66 64
43 -64 66
-67 65
-67 66
-65 -66 67
-68 -18
-68 19
18 -19 68
-69 18
-69 -19
-18 19 69
-70 -68
-70 -69
68 69 70
-71 18
-71 19
-18 -19 71
-72 -18
-72 -70
18 70 72
-73 18
-73 70
-18 -70 73
-74 -72
-74 -73
72 73 74
-75 18
-75 -70
-18 70 75
-76 -71
-76 -75
71 75 76
-77 -19
-77 20
19 -20 77
-78 19
-78 -20
-19 20 78
-79 -77
-79 -78
77 78 79
-80 19
-80 20
-19 -20 80
-81 76
-81 -79
-76 79 81
-82 -76
-82 79
76 -79 82
-83 -81
-83 -82
81 82 83
-84 -76
-84 -79
76 79 84
-85 -80
-85 -84
80 84 85
-86 -20
-86 21
20 -21 86
-87 20
-87 -21
-20 21 87
-88 -86
-88 -87
86 87 88
-89 20
-89 21
-20 -21 89
-90 85
-90 -88
-85 88 90
-91 -85
-91 88
85 -88 91
-92 -90
-92 -91
90 91 92
-93 -85
-93 -88
85 88 93
-94 -89
-94 -93
89 93 94
-95 -21
-95 22
21 -22 95
-96 21
-96 -22
-21 22 96
-97 -95
-97 -96
95 96 97
-98 21
-98 22
-21 -22 98
-99 94
-99 -97
-94 97 99
-100 -94
-100 97
94 -97 100
-101 -99
-101 -100
99 100 101
-102 -94
-102 -97
94 97 102
-103 -98
-103 -102
98 102 103
-104 -22
-104 23
22 -23 104
-105 22
-105 -23
-22 23 105
-106 -104
-106 -105
104 105 106
-107 22
-107 23
-22 -23 107
-108 103
-108 -106
-103 106 108
-109 -103
-109 106
103 -106 109
-110 -108
-110 -109
108 109 110
-111 -103
-111 -106
103 106 111
-112 -107
-112 -111
107 111 112
-113 -23
-113 24
23 -24 113
-114 23
-114 -24
-23 24 114
-115 -113
-115 -114
113 114 115
-116 23
-116 24
-23 -24 116
-117 112
-117 -115
-112 115 117
-118 -112
-118 115
112 -115 118
-119 -117
-119 -118
117 118 119
-120 -112
-120 -115
112 115 120
-121 -116
-121 -120
116 120 121
-122 -24
-122 25
24 -25 122
-123 24
-123 -25
-24 25 123
-124 -122
-124 -123
122 123 124
-125 24
-125 25
-24 -25 125
-126 121
-126 -124
-121 124 126
-127 -121
-127 124
121 -124 127
-128 -126
-128 -127
126 127 128
-129 -121
-129 -124
121 124 129
-130 -125
-130 -129
125 129 130
-131 -25
-131 26
25 -26 131
-132 25
-132 -26
-25 26 132
-133 -131
-133 -132
131 132 133
-134 25
-134 26
-25 -26 134
-135 130
-135 -133
-130 133 135
-136 -130
-136 133
130 -133 136
-137 -135
-137 -136
135 136 137
-138 -130
-138 -133
130 133 138
-139 -134
-139 -138
134 138 139
-140 -26
-140 27
26 -27 140
-141 26
-141 -27
-26 27 141
-142 -140
-142 -141
140 141 142
-143 26
-143 27
-26 -27 143
-144 139
-144 -142
-139 142 144
-145 -139
-145 142
139 -142 145
-146 -144
-146 -145
144 145 146
-147 -139
-147 -142
139 142 147
-148 -143
-148 -147
143 147 148
-149 -27
-149 28
27 -28 149
-150 27
-150 -28
-27 28 150
-151 -149
-151 -150
149 150 151
-152 27
-152 28
-27 -28 152
-153 148
-153 -151
-148 151 153
-154 -148
-154 151
148 -151 154
-155 -153
-155 -154
153 154 155
-156 -148
-156 -151
148 151 156
-157 -152
-157 -156
152 156 157
-158 -28
-158 29
28 -29 158
-159 28
-159 -29
-28 29 159
-160 -158
-160 -159
158 159 160
-161 28
-161 29
-28 -29 161
-162 157
-162 -160
-157 160 162
-163 -157
-163 160
157 -160 163
-164 -162
-164 -163
162 163 164
-165 -157
-165 -160
157 160 165
-166 -161
-166 -165
161 165 166
-167 -29
-167 30
29 -30 167
-168 29
-168 -30
-29 30 168
-169 -167
-169 -168
167 168 169
-170 29
-170 30
-29 -30 170
-171 166
-171 -169
-166 169 171
-172 -166
-172 169
166 -169 172
-173 -171
-173 -172
171 172 173
-174 -166
-174 -169
166 169 174
-175 -170
-175 -174
170 174 175
-176 -30
-176 31
30 -31 176
-177 30
-177 -31
-30 31 177
-178 -176
-178 -177
176 177 178
-179 30
-179 31
-30 -31 179
-180 175
-180 -178
-175 178 180
-181 -175
-181 178
175 -178 181
-182 -180
-182 -181
180 181 182
-183 -175
-183 -178
175 178 183
-184 -179
-184 -183
179 183 184
-185 -31
-185 32
31 -32 185
-186 31
-186 -32
-31 32 186
-187 -185
-187 -186
185 186 187
-188 31
-188 32
-31 -32 188
-189 184
-189 -187
-184 187 189
-190 -184
-190 187
184 -187 190
-191 -189
-191 -190
189 190 191
-192 -184
-192 -187
184 187 192
-193 -188
-193 -192
188 192 193
-194 -32
-194 33
32 -33 194
-195 32
-195 -33
-32 33 195
-196 -194
-196 -195
194 195 196
-197 32
-197 33
-32 -33 197
-198 193
-198 -196
-193 196 198
-199 -193
-199 196
193 -196 199
-200 -198
-200 -199
198 199 200
-201 -193
-201 -196
193 196 201
-202 -197
-202 -201
197 201 202
-203 -33
-203 34
33 -34 203
-204 33
-204 -34
-33 34 204
-205 -203
-205 -204
203 204 205
-206 33
-206 34
-33 -34 206
-207 202
-207 -205
-202 205 207
-208 -202
-208 205
202 -205 208
-209 -207
-209 -208
207 208 209
-210 -202
-210 -205
202 205 210
-211 -206
-211 -210
206 210 211
-212 -34
-212 35
34 -35 212
-213 34
-213 -35
-34 35 213
-214 -212
-214 -213
212 213 214
-215 34
-215 35
-34 -35 215
-216 211
-216 -214
-211 214 216
-217 -211
-217 214
211 -214 217
-218 -216
-218 -217
216 217 218
-219 -211
-219 -214
211 214 219
-220 -215
-220 -219
215 219 220
-221 -35
-221 36
35 -36 221
-222 35
-222 -36
-35 36 222
-223 -221
-223 -222
221 222 223
-224 35
-224 36
-35 -36 224
-225 220
-225 -223
-220 223 225
-226 -220
-226 223
220 -223 226
-227 -225
-227 -226
225 226 227
-228 -220
-228 -223
220 223 228
-229 -224
-229 -228
224 228 229
-230 -36
-230 37
36 -37 230
-231 36
-231 -37
-36 37 231
-232 -230
-232 -231
230 231 232
-233 36
-233 37
-36 -37 233
-234 229
-234 -232
-229 232 234
-235 -229
-235 232
229 -232 235
-236 -234
-236 -235
234 235 236
-237 -229
-237 -232
229 232 237
-238 -233
-238 -237
233 237 238
-239 -37
-239 38
37 -38 239
-240 37
-240 -38
-37 38 240
-241 -239
-241 -240
239 240 241
-242 37
-242 38
-37 -38 242
-243 238
-243 -241
-238 241 243
-244 -238
-244 241
238 -241 244
-245 -243
-245 -244
243 244 245
-246 -238
-246 -241
238 241 246
-247 -242
-247 -246
242 246 247
-248 -38
-248 39
38 -39 248
-249 38
-249 -39
-38 39 249
-250 -248
-250 -249
248 249 250
-251 38
-251 39
-38 -39 251
-252 247
-252 -250
-247 250 252
-253 -247
-253 250
247 -250 253
-254 -252
-254 -253
252 253 254
-255 -247
-255 -250
247 250 255
-256 -251
-256 -255
251 255 256
-257 -39
-257 40
39 -40 257
-258 39
-258 -40
-39 40 258
-259 -257
-259 -258
257 258 259
-260 39
-260 40
-39 -40 260
-261 256
-261 -259
-256 259 261
-262 -256
-262 259
256 -259 262
-263 -261
-263 -262
261 262 263
-264 -256
-264 -259
256 259 264
-265 -260
-265 -264
260 264 265
-266 -40
-266 41
40 -41 266
-267 40
-267 -41
-40 41 267
-268 -266
-268 -267
266 267 268
-269 40
-269 41
-40 -41 269
-270 265
-270 -268
-265 268 270
-271 -265
-271 268
265 -268 271
-272 -270
-272 -271
270 271 272
-273 -265
-273 -268
265 268 273
-274 -269
-274 -273
269 273 274
-275 -41
-275 42
41 -42 275
-276 41
-276 -42
-41 42 276
-277 -275
-277 -276
275 276 277
-278 41
-278 42
-41 -42 278
-279 274
-279 -277
-274 277 279
-280 -274
-280 277
274 -277 280
-281 -279
-281 -280
279 280 281
-282 -274
-282 -277
274 277 282
-283 -278
-283 -282
278 282 283
-284 -42
-284 43
42 -43 284
-285 42
-285 -43
-42 43 285
-286 -284
-286 -285
284 285 286
-287 42
-287 43
-42 -43 287
-288 283
-288 -286
-283 286 288
-289 -283
-289 286
283 -286 289
-290 -288
-290 -289
288 289 290
-291 -283
-291 -286
283 286 291
-292 -287
-292 -291
287 291 292
-293 18
-293 -74
-18 74 293
-294 -18
-294 20
18 -20 294
-295 -293
-295 -294
293 294 295
-296 18
-296 -83
-18 83 296
-297 -18
-297 21
18 -21 297
-298 -296
-298 -297
296 297 298
-299 18
-299 -92
-18 92 299
-300 -18
-300 22
18 -22 300
-301 -299
-301 -300
299 300 301
-302 18
-302 -101
-18 101 302
-303 -18
-303 23
18 -23 303
-304 -302
-304 -303
302 303 304
-305 18
-305 -110
-18 110 305
-306 -18
-306 24
18 -24 306
-307 -305
-307 -306
305 306 307
-308 18
-308 -119
-18 119 308
-309 -18
-309 25
18 -25 309
-310 -308
-310 -309
308 309 310
-311 18
-311 -128
-18 128 311
-312 -18
-312 26
18 -26 312
-313 -311
-313 -312
311 312 313
-314 18
-314 -137
-18 137 314
-315 -18
-315 27
18 -27 315
-316 -314
-316 -315
314 315 316
-317 18
-317 -146
-18 146 317
-318 -18
-318 28
18 -28 318
-319 -317
-319 -318
317 318 319
-320 18
-320 -155
-18 155 320
-321 -18
-321 29
18 -29 321
-322 -320
-322 -321
320 321 322
-323 18
-323 -164
-18 164 323
-324 -18
-324 30
18 -30 324
-325 -323
-325 -324
323 324 325
-326 18
-326 -173
-18 173 326
-327 -18
-327 31
18 -31 327
-328 -326
-328 -327
326 327 328
-329 18
-329 -182
-18 182 329
-330 -18
-330 32
18 -32 330
-331 -329
-331 -330
329 330 331
-332 18
-332 -191
-18 191 332
-333 -18
-333 33
18 -33 333
-334 -332
-334 -333
332 333 334
-335 18
-335 -200
-18 200 335
-336 -18
-336 34
18 -34 336
-337 -335
-337 -336
335 336 337
-338 18
-338 -209
-18 209 338
-339 -18
-339 35
18 -35 339
-340 -338
-340 -339
338 339 340
-341 18
-341 -218
-18 218 341
-342 -18
-342 36
18 -36 342
-343 -341
-343 -342
341 342 343
-344 18
-344 -227
-18 227 344
-345 -18
-345 37
18 -37 345
-346 -344
-346 -345
344 345 346
-347 18
-347 -236
-18 236 347
-348 -18
-348 38
18 -38 348
-349 -347
-349 -348
347 348 349
-350 18
-350 -245
-18 245 350
-351 -18
-351 39
18 -39 351
-352 -350
-352 -351
350 351 352
-353 18
-353 -254
-18 254 353
-354 -18
-354 40
18 -40 354
-355 -353
-355 -354
353 354 355
-356 18
-356 -263
-18 263 356
-357 -18
-357 41
18 -41 357
-358 -356
-358 -357
356 357 358
-359 18
-359 -272
-18 272 359
-360 -18
-360 42
18 -42 360
-361 -359
-361 -360
359 360 361
-362 18
-362 -281
-18 281 362
-363 -18
-363 43
18 -43 363
-364 -362
-364 -363
362 363 364
-365 18
-365 -290
-18 290 365
-366 1
-366 67
-1 -67 366
-367 -67
-367 68
67 -68 367
-368 -366
-368 -367
366 367 368
-369 2
-369 67
-2 -67 369
-370 -67
-370 -295
67 295 370
-371 -369
-371 -370
369 370 371
-372 3
-372 67
-3 -67 372
-373 -67
-373 -298
67 298 373
-374 -372
-374 -373
372 373 374
-375 4
-375 67
-4 -67 375
-376 -67
-376 -301
67 301 376
-377 -375
-377 -376
375 376 377
-378 5
-378 67
-5 -67 378
-379 -67
-379 -304
67 304 379
-380 -378
-380 -379
378 379 380
-381 6
-381 67
-6 -67 381
-382 -67
-382 -307
67 307 382
-383 -381
-383 -382
381 382 383
-384 7
-384 67
-7 -67 384
-385 -67
-385 -310
67 310 385
-386 -384
-386 -385
384 385 386
-387 8
-387 67
-8 -67 387
-388 -67
-388 -313
67 313 388
-389 -387
-389 -388
387 388 389
-390 9
-390 67
-9 -67 390
-391 -67
-391 -316
67 316 391
-392 -390
-392 -391
390 391 392
-393 10
-393 67
-10 -67 393
-394 -67
-394 -319
67 319 394
-395 -393
-395 -394
393 394 395
-396 11
-396 67
-11 -67 396
-397 -67
-397 -322
67 322 397
-398 -396
-398 -397
396 397 398
-399 12
-399 67
-12 -67 399
-400 -67
-400 -325
67 325 400
-401 -399
-401 -400
399 400 401
-402 13
-402 67
-13 -67 402
-403 -67
-403 -328
67 328 403
-404 -402
-404 -403
402 403 404
-405 14
-405 67
-14 -67 405
-406 -67
-406 -331
67 331 406
-407 -405
-407 -406
405 406 407
-408 15
-408 67
-15 -67 408
-409 -67
-409 -334
67 334 409
-410 -408
-410 -409
408 409 410
-411 16
-411 67
-16 -67 411
-412 -67
-412 -337
67 337 412
-413 -411
-413 -412
411 412 413
-414 17
-414 67
-17 -67 414
-415 -67
-415 -340
67 340 415
-416 -414
-416 -415
414 415 416
-417 -67
-417 -343
67 343 417
-418 -67
-418 -346
67 346 418
-419 -67
-419 -349
67 349 419
-420 -67
-420 -352
67 352 420
-421 -67
-421 -355
67 355 421
-422 -67
-422 -358
67 358 422
-423 -67
-423 -361
67 361 423
-424 -67
-424 -364
67 364 424
-425 -67
-425 365
67 -365 425
-426 -43
-426 292
43 -292 426
-427 18
-427 -426
-18 426 427
427
